p cnf 999 1764
118 0
167 0
244 0
287 0
312 0
349 0
374 0
398 0
421 0
459 0
494 0
519 0
535 0
541 0
563 0
577 0
592 0
617 0
654 0
683 0
732 0
765 0
823 0
869 0
937 0
946 0
978 0
993 0
-112 0
-212 0
-412 0
-512 0
-612 0
-712 0
-812 0
-912 0
-117 0
-217 0
-317 0
-417 0
-517 0
-717 0
-817 0
-917 0
-218 0
-318 0
-418 0
-518 0
-618 0
-718 0
-818 0
-918 0
-119 0
-219 0
-319 0
-419 0
-619 0
-719 0
-819 0
-919 0
-121 0
-221 0
-321 0
-521 0
-621 0
-721 0
-821 0
-921 0
-123 0
-223 0
-323 0
-423 0
-523 0
-623 0
-723 0
-923 0
-132 0
-232 0
-332 0
-432 0
-532 0
-632 0
-832 0
-932 0
-135 0
-235 0
-335 0
-435 0
-635 0
-735 0
-835 0
-935 0
-137 0
-237 0
-337 0
-437 0
-537 0
-637 0
-737 0
-837 0
-141 0
-241 0
-341 0
-441 0
-641 0
-741 0
-841 0
-941 0
-144 0
-344 0
-444 0
-544 0
-644 0
-744 0
-844 0
-944 0
-146 0
-246 0
-346 0
-446 0
-546 0
-646 0
-746 0
-846 0
-149 0
-249 0
-449 0
-549 0
-649 0
-749 0
-849 0
-949 0
-154 0
-254 0
-354 0
-454 0
-554 0
-754 0
-854 0
-954 0
-159 0
-259 0
-359 0
-559 0
-659 0
-759 0
-859 0
-959 0
-163 0
-263 0
-363 0
-463 0
-663 0
-763 0
-863 0
-963 0
-165 0
-265 0
-365 0
-465 0
-565 0
-665 0
-865 0
-965 0
-267 0
-367 0
-467 0
-567 0
-667 0
-767 0
-867 0
-967 0
-169 0
-269 0
-369 0
-469 0
-569 0
-669 0
-769 0
-969 0
-174 0
-274 0
-474 0
-574 0
-674 0
-774 0
-874 0
-974 0
-177 0
-277 0
-377 0
-477 0
-677 0
-777 0
-877 0
-977 0
-178 0
-278 0
-378 0
-478 0
-578 0
-678 0
-778 0
-878 0
-183 0
-283 0
-383 0
-483 0
-583 0
-783 0
-883 0
-983 0
-187 0
-387 0
-487 0
-587 0
-687 0
-787 0
-887 0
-987 0
-192 0
-292 0
-392 0
-492 0
-692 0
-792 0
-892 0
-992 0
-193 0
-293 0
-393 0
-493 0
-593 0
-693 0
-793 0
-893 0
-194 0
-294 0
-394 0
-594 0
-694 0
-794 0
-894 0
-994 0
-198 0
-298 0
-498 0
-598 0
-698 0
-798 0
-898 0
-998 0
-127 0
-147 0
-157 0
-197 0
-128 0
-138 0
-148 0
-158 0
-168 0
-188 0
-214 0
-224 0
-234 0
-264 0
-284 0
-227 0
-247 0
-257 0
-297 0
-322 0
-342 0
-352 0
-362 0
-372 0
-382 0
-314 0
-324 0
-334 0
-364 0
-384 0
-328 0
-338 0
-348 0
-358 0
-368 0
-388 0
-329 0
-339 0
-379 0
-389 0
-399 0
-411 0
-431 0
-451 0
-461 0
-471 0
-481 0
-491 0
-414 0
-424 0
-434 0
-464 0
-484 0
-429 0
-439 0
-479 0
-489 0
-499 0
-511 0
-531 0
-551 0
-561 0
-571 0
-581 0
-591 0
-522 0
-542 0
-552 0
-562 0
-572 0
-582 0
-513 0
-533 0
-543 0
-553 0
-573 0
-515 0
-525 0
-545 0
-555 0
-575 0
-585 0
-595 0
-527 0
-547 0
-557 0
-597 0
-529 0
-539 0
-579 0
-589 0
-599 0
-613 0
-633 0
-643 0
-653 0
-673 0
-614 0
-624 0
-634 0
-664 0
-684 0
-627 0
-647 0
-657 0
-697 0
-722 0
-742 0
-752 0
-762 0
-772 0
-782 0
-715 0
-725 0
-745 0
-755 0
-775 0
-785 0
-795 0
-813 0
-833 0
-843 0
-853 0
-873 0
-829 0
-839 0
-879 0
-889 0
-899 0
-913 0
-933 0
-943 0
-953 0
-973 0
-916 0
-926 0
-936 0
-956 0
-966 0
-976 0
-986 0
-996 0
-927 0
-947 0
-957 0
-997 0
-928 0
-938 0
-948 0
-958 0
-968 0
-988 0
-111 0
-113 0
-114 0
-115 0
-116 0
-161 0
-162 0
-164 0
-166 0
-242 0
-243 0
-245 0
-248 0
-281 0
-282 0
-285 0
-286 0
-288 0
-289 0
-311 0
-313 0
-315 0
-316 0
-343 0
-345 0
-347 0
-371 0
-373 0
-375 0
-376 0
-391 0
-395 0
-396 0
-397 0
-422 0
-425 0
-426 0
-427 0
-428 0
-452 0
-453 0
-455 0
-456 0
-457 0
-458 0
-495 0
-496 0
-497 0
-514 0
-516 0
-534 0
-536 0
-538 0
-548 0
-564 0
-566 0
-568 0
-576 0
-596 0
-611 0
-615 0
-616 0
-651 0
-652 0
-655 0
-656 0
-658 0
-681 0
-682 0
-685 0
-686 0
-688 0
-689 0
-731 0
-733 0
-734 0
-736 0
-738 0
-739 0
-761 0
-764 0
-766 0
-768 0
-822 0
-824 0
-825 0
-826 0
-827 0
-828 0
-861 0
-862 0
-864 0
-866 0
-868 0
-931 0
-934 0
-939 0
-942 0
-945 0
-971 0
-972 0
-975 0
-979 0
-991 0
-995 0
-999 0
-631 0
-661 0
-122 0
-222 0
-472 0
-482 0
-672 0
-922 0
-443 0
-473 0
-713 0
-773 0
-184 0
-584 0
-415 0
-625 0
-845 0
-855 0
-955 0
-756 0
-856 0
-357 0
-727 0
-228 0
-238 0
-788 0
-888 0
-629 0
-639 0
121 122 123 124 125 126 127 128 129 0
131 132 133 134 135 136 137 138 139 0
141 142 143 144 145 146 147 148 149 0
151 152 153 154 155 156 157 158 159 0
171 172 173 174 175 176 177 178 179 0
181 182 183 184 185 186 187 188 189 0
191 192 193 194 195 196 197 198 199 0
211 212 213 214 215 216 217 218 219 0
221 222 223 224 225 226 227 228 229 0
231 232 233 234 235 236 237 238 239 0
251 252 253 254 255 256 257 258 259 0
261 262 263 264 265 266 267 268 269 0
271 272 273 274 275 276 277 278 279 0
291 292 293 294 295 296 297 298 299 0
321 322 323 324 325 326 327 328 329 0
331 332 333 334 335 336 337 338 339 0
351 352 353 354 355 356 357 358 359 0
361 362 363 364 365 366 367 368 369 0
381 382 383 384 385 386 387 388 389 0
411 412 413 414 415 416 417 418 419 0
431 432 433 434 435 436 437 438 439 0
441 442 443 444 445 446 447 448 449 0
461 462 463 464 465 466 467 468 469 0
471 472 473 474 475 476 477 478 479 0
481 482 483 484 485 486 487 488 489 0
521 522 523 524 525 526 527 528 529 0
551 552 553 554 555 556 557 558 559 0
581 582 583 584 585 586 587 588 589 0
621 622 623 624 625 626 627 628 629 0
631 632 633 634 635 636 637 638 639 0
641 642 643 644 645 646 647 648 649 0
661 662 663 664 665 666 667 668 669 0
671 672 673 674 675 676 677 678 679 0
691 692 693 694 695 696 697 698 699 0
711 712 713 714 715 716 717 718 719 0
721 722 723 724 725 726 727 728 729 0
741 742 743 744 745 746 747 748 749 0
751 752 753 754 755 756 757 758 759 0
771 772 773 774 775 776 777 778 779 0
781 782 783 784 785 786 787 788 789 0
791 792 793 794 795 796 797 798 799 0
811 812 813 814 815 816 817 818 819 0
831 832 833 834 835 836 837 838 839 0
841 842 843 844 845 846 847 848 849 0
851 852 853 854 855 856 857 858 859 0
871 872 873 874 875 876 877 878 879 0
881 882 883 884 885 886 887 888 889 0
891 892 893 894 895 896 897 898 899 0
911 912 913 914 915 916 917 918 919 0
921 922 923 924 925 926 927 928 929 0
951 952 953 954 955 956 957 958 959 0
961 962 963 964 965 966 967 968 969 0
981 982 983 984 985 986 987 988 989 0
-211 -711 0
-211 -811 0
-211 -911 0
-711 -811 0
-711 -911 0
-811 -911 0
-213 -413 0
-714 -814 0
-714 -914 0
-814 -914 0
-215 -815 0
-215 -915 0
-815 -915 0
-216 -416 0
-216 -716 0
-216 -816 0
-416 -716 0
-416 -816 0
-716 -816 0
-124 -524 0
-124 -724 0
-124 -924 0
-524 -724 0
-524 -924 0
-724 -924 0
-125 -225 0
-125 -325 0
-125 -925 0
-225 -325 0
-225 -925 0
-325 -925 0
-126 -226 0
-126 -326 0
-126 -526 0
-126 -626 0
-126 -726 0
-226 -326 0
-226 -526 0
-226 -626 0
-226 -726 0
-326 -526 0
-326 -626 0
-326 -726 0
-526 -626 0
-526 -726 0
-626 -726 0
-528 -628 0
-528 -728 0
-628 -728 0
-129 -229 0
-129 -729 0
-129 -929 0
-229 -729 0
-229 -929 0
-729 -929 0
-131 -231 0
-131 -331 0
-131 -831 0
-231 -331 0
-231 -831 0
-331 -831 0
-133 -233 0
-133 -333 0
-133 -433 0
-233 -333 0
-233 -433 0
-333 -433 0
-134 -834 0
-136 -236 0
-136 -336 0
-136 -436 0
-136 -636 0
-136 -836 0
-236 -336 0
-236 -436 0
-236 -636 0
-236 -836 0
-336 -436 0
-336 -636 0
-336 -836 0
-436 -636 0
-436 -836 0
-636 -836 0
-438 -638 0
-438 -838 0
-638 -838 0
-139 -239 0
-142 -442 0
-142 -642 0
-142 -842 0
-442 -642 0
-442 -842 0
-642 -842 0
-143 -743 0
-145 -445 0
-145 -645 0
-445 -645 0
-447 -747 0
-447 -847 0
-747 -847 0
-448 -648 0
-448 -748 0
-448 -848 0
-648 -748 0
-648 -848 0
-748 -848 0
-151 -251 0
-151 -351 0
-151 -751 0
-151 -851 0
-151 -951 0
-251 -351 0
-251 -751 0
-251 -851 0
-251 -951 0
-351 -751 0
-351 -851 0
-351 -951 0
-751 -851 0
-751 -951 0
-851 -951 0
-152 -252 0
-152 -852 0
-152 -952 0
-252 -852 0
-252 -952 0
-852 -952 0
-153 -253 0
-153 -353 0
-153 -753 0
-253 -353 0
-253 -753 0
-353 -753 0
-155 -255 0
-155 -355 0
-255 -355 0
-156 -256 0
-156 -356 0
-156 -556 0
-256 -356 0
-256 -556 0
-356 -556 0
-757 -857 0
-258 -558 0
-258 -758 0
-258 -858 0
-558 -758 0
-558 -858 0
-758 -858 0
-261 -361 0
-261 -961 0
-361 -961 0
-262 -462 0
-262 -662 0
-262 -962 0
-462 -662 0
-462 -962 0
-662 -962 0
-266 -366 0
-266 -466 0
-266 -666 0
-366 -466 0
-366 -666 0
-466 -666 0
-268 -468 0
-268 -668 0
-468 -668 0
-171 -271 0
-171 -671 0
-171 -771 0
-171 -871 0
-271 -671 0
-271 -771 0
-271 -871 0
-671 -771 0
-671 -871 0
-771 -871 0
-172 -272 0
-172 -872 0
-272 -872 0
-173 -273 0
-175 -275 0
-175 -475 0
-175 -675 0
-175 -875 0
-275 -475 0
-275 -675 0
-275 -875 0
-475 -675 0
-475 -875 0
-675 -875 0
-176 -276 0
-176 -476 0
-176 -676 0
-176 -776 0
-176 -876 0
-276 -476 0
-276 -676 0
-276 -776 0
-276 -876 0
-476 -676 0
-476 -776 0
-476 -876 0
-676 -776 0
-676 -876 0
-776 -876 0
-179 -279 0
-179 -679 0
-179 -779 0
-279 -679 0
-279 -779 0
-679 -779 0
-181 -381 0
-181 -781 0
-181 -881 0
-181 -981 0
-381 -781 0
-381 -881 0
-381 -981 0
-781 -881 0
-781 -981 0
-881 -981 0
-182 -882 0
-182 -982 0
-882 -982 0
-784 -884 0
-784 -984 0
-884 -984 0
-185 -385 0
-185 -485 0
-185 -885 0
-185 -985 0
-385 -485 0
-385 -885 0
-385 -985 0
-485 -885 0
-485 -985 0
-885 -985 0
-186 -386 0
-186 -486 0
-186 -586 0
-186 -786 0
-186 -886 0
-386 -486 0
-386 -586 0
-386 -786 0
-386 -886 0
-486 -586 0
-486 -786 0
-486 -886 0
-586 -786 0
-586 -886 0
-786 -886 0
-488 -588 0
-189 -789 0
-189 -989 0
-789 -989 0
-191 -291 0
-191 -691 0
-191 -791 0
-191 -891 0
-291 -691 0
-291 -791 0
-291 -891 0
-691 -791 0
-691 -891 0
-791 -891 0
-195 -295 0
-195 -695 0
-195 -895 0
-295 -695 0
-295 -895 0
-695 -895 0
-196 -296 0
-196 -696 0
-196 -796 0
-196 -896 0
-296 -696 0
-296 -796 0
-296 -896 0
-696 -796 0
-696 -896 0
-796 -896 0
-797 -897 0
-199 -299 0
-199 -699 0
-199 -799 0
-299 -699 0
-299 -799 0
-699 -799 0
-131 -151 0
-131 -171 0
-131 -181 0
-131 -191 0
-151 -171 0
-151 -181 0
-151 -191 0
-171 -181 0
-171 -191 0
-181 -191 0
-142 -152 0
-142 -172 0
-142 -182 0
-152 -172 0
-152 -182 0
-172 -182 0
-133 -143 0
-133 -153 0
-133 -173 0
-143 -153 0
-143 -173 0
-153 -173 0
-124 -134 0
-125 -145 0
-125 -155 0
-125 -175 0
-125 -185 0
-125 -195 0
-145 -155 0
-145 -175 0
-145 -185 0
-145 -195 0
-155 -175 0
-155 -185 0
-155 -195 0
-175 -185 0
-175 -195 0
-185 -195 0
-126 -136 0
-126 -156 0
-126 -176 0
-126 -186 0
-126 -196 0
-136 -156 0
-136 -176 0
-136 -186 0
-136 -196 0
-156 -176 0
-156 -186 0
-156 -196 0
-176 -186 0
-176 -196 0
-186 -196 0
-129 -139 0
-129 -179 0
-129 -189 0
-129 -199 0
-139 -179 0
-139 -189 0
-139 -199 0
-179 -189 0
-179 -199 0
-189 -199 0
-211 -231 0
-211 -251 0
-211 -261 0
-211 -271 0
-211 -291 0
-231 -251 0
-231 -261 0
-231 -271 0
-231 -291 0
-251 -261 0
-251 -271 0
-251 -291 0
-261 -271 0
-261 -291 0
-271 -291 0
-252 -262 0
-252 -272 0
-262 -272 0
-213 -233 0
-213 -253 0
-213 -273 0
-233 -253 0
-233 -273 0
-253 -273 0
-215 -225 0
-215 -255 0
-215 -275 0
-215 -295 0
-225 -255 0
-225 -275 0
-225 -295 0
-255 -275 0
-255 -295 0
-275 -295 0
-216 -226 0
-216 -236 0
-216 -256 0
-216 -266 0
-216 -276 0
-216 -296 0
-226 -236 0
-226 -256 0
-226 -266 0
-226 -276 0
-226 -296 0
-236 -256 0
-236 -266 0
-236 -276 0
-236 -296 0
-256 -266 0
-256 -276 0
-256 -296 0
-266 -276 0
-266 -296 0
-276 -296 0
-258 -268 0
-229 -239 0
-229 -279 0
-229 -299 0
-239 -279 0
-239 -299 0
-279 -299 0
-331 -351 0
-331 -361 0
-331 -381 0
-351 -361 0
-351 -381 0
-361 -381 0
-333 -353 0
-325 -355 0
-325 -385 0
-355 -385 0
-326 -336 0
-326 -356 0
-326 -366 0
-326 -386 0
-336 -356 0
-336 -366 0
-336 -386 0
-356 -366 0
-356 -386 0
-366 -386 0
-442 -462 0
-413 -433 0
-445 -475 0
-445 -485 0
-475 -485 0
-416 -436 0
-416 -466 0
-416 -476 0
-416 -486 0
-436 -466 0
-436 -476 0
-436 -486 0
-466 -476 0
-466 -486 0
-476 -486 0
-438 -448 0
-438 -468 0
-438 -488 0
-448 -468 0
-448 -488 0
-468 -488 0
-526 -556 0
-526 -586 0
-556 -586 0
-528 -558 0
-528 -588 0
-558 -588 0
-671 -691 0
-622 -642 0
-622 -662 0
-642 -662 0
-645 -675 0
-645 -695 0
-675 -695 0
-626 -636 0
-626 -666 0
-626 -676 0
-626 -696 0
-636 -666 0
-636 -676 0
-636 -696 0
-666 -676 0
-666 -696 0
-676 -696 0
-628 -638 0
-628 -648 0
-628 -668 0
-638 -648 0
-638 -668 0
-648 -668 0
-679 -699 0
-711 -751 0
-711 -771 0
-711 -781 0
-711 -791 0
-751 -771 0
-751 -781 0
-751 -791 0
-771 -781 0
-771 -791 0
-781 -791 0
-743 -753 0
-714 -724 0
-714 -784 0
-724 -784 0
-716 -726 0
-716 -776 0
-716 -786 0
-716 -796 0
-726 -776 0
-726 -786 0
-726 -796 0
-776 -786 0
-776 -796 0
-786 -796 0
-747 -757 0
-747 -797 0
-757 -797 0
-728 -748 0
-728 -758 0
-748 -758 0
-729 -779 0
-729 -789 0
-729 -799 0
-779 -789 0
-779 -799 0
-789 -799 0
-811 -831 0
-811 -851 0
-811 -871 0
-811 -881 0
-811 -891 0
-831 -851 0
-831 -871 0
-831 -881 0
-831 -891 0
-851 -871 0
-851 -881 0
-851 -891 0
-871 -881 0
-871 -891 0
-881 -891 0
-842 -852 0
-842 -872 0
-842 -882 0
-852 -872 0
-852 -882 0
-872 -882 0
-814 -834 0
-814 -884 0
-834 -884 0
-815 -875 0
-815 -885 0
-815 -895 0
-875 -885 0
-875 -895 0
-885 -895 0
-816 -836 0
-816 -876 0
-816 -886 0
-816 -896 0
-836 -876 0
-836 -886 0
-836 -896 0
-876 -886 0
-876 -896 0
-886 -896 0
-847 -857 0
-847 -897 0
-857 -897 0
-838 -848 0
-838 -858 0
-848 -858 0
-911 -951 0
-911 -961 0
-911 -981 0
-951 -961 0
-951 -981 0
-961 -981 0
-952 -962 0
-952 -982 0
-962 -982 0
-914 -924 0
-914 -964 0
-914 -984 0
-924 -964 0
-924 -984 0
-964 -984 0
-915 -925 0
-915 -985 0
-925 -985 0
-929 -989 0
-124 -125 0
-124 -126 0
-124 -129 0
-125 -126 0
-125 -129 0
-126 -129 0
-131 -133 0
-131 -134 0
-131 -136 0
-131 -139 0
-133 -134 0
-133 -136 0
-133 -139 0
-134 -136 0
-134 -139 0
-136 -139 0
-142 -143 0
-142 -145 0
-143 -145 0
-151 -152 0
-151 -153 0
-151 -155 0
-151 -156 0
-152 -153 0
-152 -155 0
-152 -156 0
-153 -155 0
-153 -156 0
-155 -156 0
-171 -172 0
-171 -173 0
-171 -175 0
-171 -176 0
-171 -179 0
-172 -173 0
-172 -175 0
-172 -176 0
-172 -179 0
-173 -175 0
-173 -176 0
-173 -179 0
-175 -176 0
-175 -179 0
-176 -179 0
-181 -182 0
-181 -185 0
-181 -186 0
-181 -189 0
-182 -185 0
-182 -186 0
-182 -189 0
-185 -186 0
-185 -189 0
-186 -189 0
-191 -195 0
-191 -196 0
-191 -199 0
-195 -196 0
-195 -199 0
-196 -199 0
-211 -213 0
-211 -215 0
-211 -216 0
-213 -215 0
-213 -216 0
-215 -216 0
-225 -226 0
-225 -229 0
-226 -229 0
-231 -233 0
-231 -236 0
-231 -239 0
-233 -236 0
-233 -239 0
-236 -239 0
-251 -252 0
-251 -253 0
-251 -255 0
-251 -256 0
-251 -258 0
-252 -253 0
-252 -255 0
-252 -256 0
-252 -258 0
-253 -255 0
-253 -256 0
-253 -258 0
-255 -256 0
-255 -258 0
-256 -258 0
-261 -262 0
-261 -266 0
-261 -268 0
-262 -266 0
-262 -268 0
-266 -268 0
-271 -272 0
-271 -273 0
-271 -275 0
-271 -276 0
-271 -279 0
-272 -273 0
-272 -275 0
-272 -276 0
-272 -279 0
-273 -275 0
-273 -276 0
-273 -279 0
-275 -276 0
-275 -279 0
-276 -279 0
-291 -295 0
-291 -296 0
-291 -299 0
-295 -296 0
-295 -299 0
-296 -299 0
-325 -326 0
-325 -327 0
-326 -327 0
-331 -333 0
-331 -336 0
-333 -336 0
-351 -353 0
-351 -355 0
-351 -356 0
-353 -355 0
-353 -356 0
-355 -356 0
-361 -366 0
-381 -385 0
-381 -386 0
-385 -386 0
-413 -416 0
-433 -436 0
-433 -438 0
-436 -438 0
-442 -445 0
-442 -447 0
-442 -448 0
-445 -447 0
-445 -448 0
-447 -448 0
-462 -466 0
-462 -468 0
-466 -468 0
-475 -476 0
-485 -486 0
-485 -488 0
-486 -488 0
-524 -526 0
-524 -528 0
-526 -528 0
-556 -558 0
-586 -588 0
-622 -626 0
-622 -628 0
-626 -628 0
-636 -638 0
-642 -645 0
-642 -648 0
-645 -648 0
-662 -666 0
-662 -668 0
-666 -668 0
-671 -675 0
-671 -676 0
-671 -679 0
-675 -676 0
-675 -679 0
-676 -679 0
-691 -695 0
-691 -696 0
-691 -699 0
-695 -696 0
-695 -699 0
-696 -699 0
-711 -714 0
-711 -716 0
-714 -716 0
-724 -726 0
-724 -728 0
-724 -729 0
-726 -728 0
-726 -729 0
-728 -729 0
-743 -747 0
-743 -748 0
-747 -748 0
-751 -753 0
-751 -757 0
-751 -758 0
-753 -757 0
-753 -758 0
-757 -758 0
-771 -776 0
-771 -779 0
-776 -779 0
-781 -784 0
-781 -786 0
-781 -789 0
-784 -786 0
-784 -789 0
-786 -789 0
-791 -796 0
-791 -797 0
-791 -799 0
-796 -797 0
-796 -799 0
-797 -799 0
-811 -814 0
-811 -815 0
-811 -816 0
-814 -815 0
-814 -816 0
-815 -816 0
-831 -834 0
-831 -836 0
-831 -838 0
-834 -836 0
-834 -838 0
-836 -838 0
-842 -847 0
-842 -848 0
-847 -848 0
-851 -852 0
-851 -857 0
-851 -858 0
-852 -857 0
-852 -858 0
-857 -858 0
-871 -872 0
-871 -875 0
-871 -876 0
-872 -875 0
-872 -876 0
-875 -876 0
-881 -882 0
-881 -884 0
-881 -885 0
-881 -886 0
-882 -884 0
-882 -885 0
-882 -886 0
-884 -885 0
-884 -886 0
-885 -886 0
-891 -895 0
-891 -896 0
-891 -897 0
-895 -896 0
-895 -897 0
-896 -897 0
-911 -914 0
-911 -915 0
-914 -915 0
-924 -925 0
-924 -929 0
-925 -929 0
-951 -952 0
-961 -962 0
-961 -964 0
-962 -964 0
-981 -982 0
-981 -984 0
-981 -985 0
-981 -989 0
-982 -984 0
-982 -985 0
-982 -989 0
-984 -985 0
-984 -989 0
-985 -989 0
-211 -231 0
-251 -261 0
-351 -361 0
-171 -181 0
-171 -191 0
-181 -191 0
-271 -291 0
-671 -691 0
-811 -831 0
-951 -961 0
-771 -781 0
-771 -791 0
-781 -791 0
-871 -881 0
-871 -891 0
-881 -891 0
-142 -152 0
-252 -262 0
-172 -182 0
-442 -462 0
-642 -662 0
-842 -852 0
-952 -962 0
-872 -882 0
-213 -233 0
-143 -153 0
-413 -433 0
-743 -753 0
-124 -134 0
-714 -724 0
-814 -834 0
-914 -924 0
-215 -225 0
-145 -155 0
-175 -185 0
-175 -195 0
-185 -195 0
-275 -295 0
-475 -485 0
-675 -695 0
-915 -925 0
-875 -885 0
-875 -895 0
-885 -895 0
-126 -136 0
-216 -226 0
-216 -236 0
-226 -236 0
-326 -336 0
-256 -266 0
-356 -366 0
-176 -186 0
-176 -196 0
-186 -196 0
-276 -296 0
-416 -436 0
-626 -636 0
-476 -486 0
-676 -696 0
-716 -726 0
-816 -836 0
-776 -786 0
-776 -796 0
-786 -796 0
-876 -886 0
-876 -896 0
-886 -896 0
-747 -757 0
-847 -857 0
-258 -268 0
-628 -638 0
-448 -468 0
-648 -668 0
-748 -758 0
-848 -858 0
-129 -139 0
-229 -239 0
-179 -189 0
-179 -199 0
-189 -199 0
-279 -299 0
-679 -699 0
-779 -789 0
-779 -799 0
-789 -799 0
-131 -211 0
-131 -231 0
-131 -331 0
-211 -331 0
-231 -331 0
-151 -251 0
-151 -261 0
-151 -351 0
-151 -361 0
-251 -351 0
-251 -361 0
-261 -351 0
-261 -361 0
-171 -271 0
-171 -291 0
-171 -381 0
-181 -271 0
-181 -291 0
-181 -381 0
-191 -271 0
-191 -291 0
-191 -381 0
-271 -381 0
-291 -381 0
-711 -811 0
-711 -831 0
-711 -911 0
-811 -911 0
-831 -911 0
-751 -851 0
-751 -951 0
-751 -961 0
-851 -951 0
-851 -961 0
-771 -871 0
-771 -881 0
-771 -891 0
-771 -981 0
-781 -871 0
-781 -881 0
-781 -891 0
-781 -981 0
-791 -871 0
-791 -881 0
-791 -891 0
-791 -981 0
-871 -981 0
-881 -981 0
-891 -981 0
-142 -252 0
-142 -262 0
-152 -252 0
-152 -262 0
-172 -272 0
-182 -272 0
-442 -642 0
-442 -662 0
-462 -642 0
-462 -662 0
-842 -952 0
-842 -962 0
-852 -952 0
-852 -962 0
-872 -982 0
-882 -982 0
-133 -213 0
-133 -233 0
-133 -333 0
-213 -333 0
-233 -333 0
-143 -253 0
-143 -353 0
-153 -253 0
-153 -353 0
-253 -353 0
-173 -273 0
-714 -814 0
-714 -834 0
-714 -914 0
-714 -924 0
-724 -814 0
-724 -834 0
-724 -914 0
-724 -924 0
-814 -914 0
-814 -924 0
-834 -914 0
-834 -924 0
-784 -884 0
-784 -984 0
-884 -984 0
-125 -215 0
-125 -225 0
-125 -325 0
-215 -325 0
-225 -325 0
-145 -255 0
-145 -355 0
-155 -255 0
-155 -355 0
-255 -355 0
-175 -275 0
-175 -295 0
-175 -385 0
-185 -275 0
-185 -295 0
-185 -385 0
-195 -275 0
-195 -295 0
-195 -385 0
-275 -385 0
-295 -385 0
-445 -645 0
-475 -675 0
-475 -695 0
-485 -675 0
-485 -695 0
-815 -915 0
-815 -925 0
-875 -985 0
-885 -985 0
-895 -985 0
-126 -216 0
-126 -226 0
-126 -236 0
-126 -326 0
-126 -336 0
-136 -216 0
-136 -226 0
-136 -236 0
-136 -326 0
-136 -336 0
-216 -326 0
-216 -336 0
-226 -326 0
-226 -336 0
-236 -326 0
-236 -336 0
-156 -256 0
-156 -266 0
-156 -356 0
-156 -366 0
-256 -356 0
-256 -366 0
-266 -356 0
-266 -366 0
-176 -276 0
-176 -296 0
-176 -386 0
-186 -276 0
-186 -296 0
-186 -386 0
-196 -276 0
-196 -296 0
-196 -386 0
-276 -386 0
-296 -386 0
-416 -526 0
-416 -626 0
-416 -636 0
-436 -526 0
-436 -626 0
-436 -636 0
-526 -626 0
-526 -636 0
-466 -556 0
-466 -666 0
-556 -666 0
-476 -586 0
-476 -676 0
-476 -696 0
-486 -586 0
-486 -676 0
-486 -696 0
-586 -676 0
-586 -696 0
-716 -816 0
-716 -836 0
-726 -816 0
-726 -836 0
-776 -876 0
-776 -886 0
-776 -896 0
-786 -876 0
-786 -886 0
-786 -896 0
-796 -876 0
-796 -886 0
-796 -896 0
-747 -847 0
-747 -857 0
-757 -847 0
-757 -857 0
-797 -897 0
-438 -528 0
-438 -628 0
-438 -638 0
-528 -628 0
-528 -638 0
-448 -558 0
-448 -648 0
-448 -668 0
-468 -558 0
-468 -648 0
-468 -668 0
-558 -648 0
-558 -668 0
-488 -588 0
-728 -838 0
-748 -848 0
-748 -858 0
-758 -848 0
-758 -858 0
-129 -229 0
-129 -239 0
-139 -229 0
-139 -239 0
-179 -279 0
-179 -299 0
-189 -279 0
-189 -299 0
-199 -279 0
-199 -299 0
-729 -929 0
-779 -989 0
-789 -989 0
-799 -989 0
